p tdp 67 66
24 16
38 12
32 66
15 17
66 41
42 10
55 44
1 62
25 40
22 12
29 43
21 53
5 13
19 25
48 57
62 2
40 14
4 67
31 46
9 53
56 10
35 39
58 17
26 23
20 23
11 56
46 49
30 18
9 14
35 52
5 26
22 42
18 34
6 24
63 33
54 3
38 41
30 2
20 57
46 24
33 7
12 29
17 4
61 64
8 26
54 47
47 64
17 31
59 60
7 34
17 52
19 46
28 54
26 36
59 36
37 23
45 59
27 50
51 50
33 49
32 47
65 42
55 35
64 57
21 22
10 27
